\* Problem: Unknown *\

Minimize
 obj: + 10000 x_1 - 200 x_2 - 200 x_3 - 100 x_4 + 10000 x_5 - 200 x_6
 - 200 x_7 - 200 x_8 - 200 x_9 - 200 x_10 - 200 x_11 - 200 x_12
 - 200 x_13 + 10000 x_14 - 200 x_15 - 200 x_16 - 200 x_17 - 200 x_18
 - 200 x_19 - 200 x_20 - 200 x_21 - 200 x_22 - 200 x_23 - 200 x_24
 - 200 x_25 - 200 x_26 - 200 x_27 - 200 x_28 - 200 x_29 - 200 x_30
 - 200 x_31 - 200 x_32 - 200 x_33 - 200 x_34 - 200 x_35 - 200 x_36
 - 200 x_37 - 200 x_38 - 200 x_39 - 200 x_40 - 200 x_41 - 200 x_42
 - 200 x_43 - 200 x_44 - 200 x_45 - 100 x_46 + 200 x_47 - 100 x_49
 - 100 x_50 - 100 x_51 + 200 x_52 - 100 x_54 - 100 x_55 - 100 x_56
 + 200 x_57 - 100 x_59 - 100 x_60 - 100 x_61 + 200 x_62 - 100 x_64
 - 100 x_65 - 100 x_66 + 200 x_67 - 100 x_69 - 100 x_70 - 100 x_71
 + 200 x_72 - 100 x_74 - 100 x_75 - 100 x_76 + 200 x_77 + 100 x_79
 - 100 x_80 - 100 x_81 + 200 x_82 + 100 x_84 - 100 x_85 - 100 x_86
 - 200 x_87 + 100 x_89 - 100 x_90 - 100 x_91 + 200 x_92 - 100 x_94
 - 100 x_95 - 100 x_96 + 200 x_97 - 100 x_99 - 100 x_100 - 100 x_101
 - 200 x_102 + 100 x_104 - 100 x_105 - 100 x_106 + 200 x_107 - 100 x_109
 - 100 x_110 - 100 x_111 + 200 x_112 - 100 x_114 - 100 x_115 - 100 x_116
 + 200 x_117 - 100 x_119 - 100 x_120 - 100 x_121 + 200 x_122 - 100 x_124
 - 100 x_125 - 100 x_126 + 200 x_127 - 100 x_129 - 100 x_130 - 100 x_131
 + 200 x_132 - 100 x_134 - 100 x_135 - 100 x_136 + 200 x_137 - 100 x_139
 - 100 x_140 - 100 x_141 + 200 x_142 - 100 x_144 - 100 x_145 - 100 x_146
 + 200 x_147 - 100 x_149 - 100 x_150 - 100 x_151 + 200 x_152 - 100 x_154
 - 100 x_155 - 100 x_156 + 200 x_157 - 100 x_159 - 100 x_160 - 100 x_161
 + 200 x_162 - 100 x_164 - 100 x_165 - 100 x_166 + 200 x_167 - 100 x_169
 - 100 x_170 - 100 x_171 + 200 x_172 - 100 x_174 + 200 x_175 - 100 x_176
 - 100 x_177 - 100 x_179 + 200 x_180 - 100 x_181 - 100 x_182 - 100 x_184
 + 200 x_185 - 100 x_186 - 100 x_187 - 100 x_189 - 200 x_190 - 100 x_191
 - 100 x_192 + 100 x_194 + 200 x_195 - 100 x_196 - 100 x_197 - 100 x_199
 + 200 x_200 - 100 x_201 - 100 x_202 - 100 x_204 + 200 x_205 - 100 x_206
 - 100 x_207 - 100 x_209 + 200 x_210 - 100 x_211 - 100 x_212 - 100 x_214
 + 200 x_215 - 100 x_216 - 100 x_217 - 100 x_219 + 200 x_220 - 100 x_221
 - 100 x_222 - 100 x_224 + 200 x_225 - 100 x_226 - 100 x_227 - 100 x_229
 - 11000 x_230 - 10800 x_231 - 10700 x_232 - 10500 x_233 - 10500 x_234
 - 10500 x_235 - 10400 x_236 - 10300 x_237 - 10200 x_238 - 10200 x_239
 - 10200 x_240 - 9900 x_241 - 9900 x_242 - 9900 x_243 - 9800 x_244
 - 9700 x_245 - 9700 x_246 - 9700 x_247 - 9700 x_248 - 9400 x_249
 - 9400 x_250 - 9400 x_251 - 9400 x_252 - 9300 x_253 - 9300 x_254
 - 9400 x_255 - 9300 x_256 - 9200 x_257 - 9100 x_258 - 9100 x_259
 - 8900 x_260 - 8800 x_261 - 8700 x_262 - 8600 x_263 - 8500 x_264
 - 8300 x_265 - 8300 x_266 - 8300 x_267 - 8200 x_268 - 8100 x_269
 - 8000 x_270 - 7900 x_271 - 7800 x_272 - 7700 x_273 + 200 x_274
 - 100 x_275 - 100 x_276 + 100 x_278 - 100 x_279 - 100 x_280 - 200 x_281
 + 100 x_283 - 100 x_284 - 100 x_285 + 200 x_286 - 100 x_288 + 200 x_289
 - 100 x_290 - 100 x_291 - 100 x_293 + 200 x_294 - 100 x_295 - 100 x_296
 - 100 x_298

Subject To
 r_1: + x_3 + x_2 + x_1 = 0.0386503339986109
 r_2: + x_281 + x_205 >= 0
 r_3: + x_13 + x_12 + x_11 + x_10 + x_9 + x_8 + x_7 + x_6 + x_5 + x_4
 = 0.18
 r_4: + x_294 + x_289 + x_286 + x_274 + x_190 + x_147 + x_117 + x_102
 + x_57 >= 0
 r_5: + x_45 + x_44 + x_43 + x_42 + x_41 + x_40 + x_39 + x_38 + x_37
 + x_36 + x_35 + x_34 + x_33 + x_32 + x_31 + x_30 + x_29 + x_28 + x_27
 + x_26 + x_25 + x_24 + x_23 + x_22 + x_21 + x_20 + x_19 + x_18 + x_17
 + x_16 + x_15 + x_14 = 0.18
 r_6: + x_225 + x_220 + x_215 + x_210 + x_200 + x_195 + x_185 + x_180
 + x_175 + x_172 + x_167 + x_162 + x_157 + x_152 + x_142 + x_137 + x_132
 + x_127 + x_122 + x_112 + x_107 + x_97 + x_92 + x_87 + x_82 + x_77
 + x_72 + x_67 + x_62 + x_52 + x_47 >= 0
 r_7: + x_46 + x_15 - ~r_7 = 0
 r_8: + x_50 + x_16 - ~r_8 = 0
 r_9: + x_51 - ~r_9 = 0
 r_10: + x_55 + x_6 - ~r_10 = 0
 r_11: + x_56 - ~r_11 = 0
 r_12: + x_60 + x_17 - ~r_12 = 0
 r_13: + x_61 - ~r_13 = 0
 r_14: + x_65 + x_18 - ~r_14 = 0
 r_15: + x_66 - ~r_15 = 0
 r_16: + x_70 + x_19 - ~r_16 = 0
 r_17: + x_71 - ~r_17 = 0
 r_18: + x_75 + x_20 - ~r_18 = 0
 r_19: + x_76 - ~r_19 = 0
 r_20: + x_80 + x_21 - ~r_20 = 0
 r_21: + x_81 - ~r_21 = 0
 r_22: + x_85 + x_22 - ~r_22 = 0
 r_23: + x_86 - ~r_23 = 0
 r_24: + x_90 + x_23 - ~r_24 = 0
 r_25: + x_91 - ~r_25 = 0
 r_26: + x_95 + x_24 - ~r_26 = 0
 r_27: + x_96 - ~r_27 = 0
 r_28: + x_47 + x_46 >= 0
 r_29: + x_255 >= 0
 r_30: + x_49 + x_48 >= 0
 r_31: + x_48 - ~r_31 = 0
 r_32: + x_49 >= 0
 r_33: + x_52 + x_51 + x_50 >= 0
 r_34: + x_270 >= 0
 r_35: + x_54 + x_53 >= 0
 r_36: + x_53 - ~r_36 = 0
 r_37: + x_54 >= 0
 r_38: + x_57 + x_56 + x_55 >= 0
 r_39: + x_239 >= 0
 r_40: + x_59 + x_58 >= 0
 r_41: + x_58 - ~r_41 = 0
 r_42: + x_59 >= 0
 r_43: + x_62 + x_61 + x_60 >= 0
 r_44: + x_244 >= 0
 r_45: + x_64 + x_63 >= 0
 r_46: + x_63 - ~r_46 = 0
 r_47: + x_64 >= 0
 r_48: + x_67 + x_66 + x_65 >= 0
 r_49: + x_265 >= 0
 r_50: + x_69 + x_68 >= 0
 r_51: + x_68 - ~r_51 = 0
 r_52: + x_69 >= 0
 r_53: + x_72 + x_71 + x_70 >= 0
 r_54: + x_267 >= 0
 r_55: + x_74 + x_73 >= 0
 r_56: + x_73 - ~r_56 = 0
 r_57: + x_74 >= 0
 r_58: + x_77 + x_76 + x_75 >= 0
 r_59: + x_233 >= 0
 r_60: + x_79 + x_78 >= 0
 r_61: + x_78 - ~r_61 = 0
 r_62: + x_79 >= 0
 r_63: + x_82 + x_81 + x_80 >= 0
 r_64: + x_234 >= 0
 r_65: + x_84 + x_83 >= 0
 r_66: + x_83 - ~r_66 = 0
 r_67: + x_84 >= 0
 r_68: + x_87 + x_86 + x_85 >= 0
 r_69: + x_231 >= 0
 r_70: + x_89 + x_88 >= 0
 r_71: + x_88 - ~r_71 = 0
 r_72: + x_89 >= 0
 r_73: + x_92 + x_91 + x_90 >= 0
 r_74: + x_264 >= 0
 r_75: + x_94 + x_93 >= 0
 r_76: + x_93 - ~r_76 = 0
 r_77: + x_94 >= 0
 r_78: + x_97 + x_96 + x_95 >= 0
 r_79: + x_249 >= 0
 r_80: + x_99 + x_98 >= 0
 r_81: + x_98 - ~r_81 = 0
 r_82: + x_99 >= 0
 r_83: + x_102 + x_101 + x_100 >= 0
 r_84: + x_232 >= 0
 r_85: + x_104 + x_103 >= 0
 r_86: + x_103 - ~r_86 = 0
 r_87: + x_104 >= 0
 r_88: + x_107 + x_106 + x_105 >= 0
 r_89: + x_272 >= 0
 r_90: + x_109 + x_108 >= 0
 r_91: + x_108 - ~r_91 = 0
 r_92: + x_109 >= 0
 r_93: + x_112 + x_111 + x_110 >= 0
 r_94: + x_250 >= 0
 r_95: + x_114 + x_113 >= 0
 r_96: + x_113 - ~r_96 = 0
 r_97: + x_114 >= 0
 r_98: + x_117 + x_116 + x_115 >= 0
 r_99: + x_241 >= 0
 r_100: + x_119 + x_118 >= 0
 r_101: + x_118 - ~r_101 = 0
 r_102: + x_119 >= 0
 r_103: + x_122 + x_121 + x_120 >= 0
 r_104: + x_253 >= 0
 r_105: + x_124 + x_123 >= 0
 r_106: + x_123 - ~r_106 = 0
 r_107: + x_124 >= 0
 r_108: + x_127 + x_126 + x_125 >= 0
 r_109: + x_251 >= 0
 r_110: + x_129 + x_128 >= 0
 r_111: + x_128 - ~r_111 = 0
 r_112: + x_129 >= 0
 r_113: + x_132 + x_131 + x_130 >= 0
 r_114: + x_246 >= 0
 r_115: + x_134 + x_133 >= 0
 r_116: + x_133 - ~r_116 = 0
 r_117: + x_134 >= 0
 r_118: + x_137 + x_136 + x_135 >= 0
 r_119: + x_262 >= 0
 r_120: + x_139 + x_138 >= 0
 r_121: + x_138 - ~r_121 = 0
 r_122: + x_139 >= 0
 r_123: + x_142 + x_141 + x_140 >= 0
 r_124: + x_261 >= 0
 r_125: + x_144 + x_143 >= 0
 r_126: + x_143 - ~r_126 = 0
 r_127: + x_144 >= 0
 r_128: + x_147 + x_146 + x_145 >= 0
 r_129: + x_235 >= 0
 r_130: + x_149 + x_148 >= 0
 r_131: + x_148 - ~r_131 = 0
 r_132: + x_149 >= 0
 r_133: + x_152 + x_151 + x_150 >= 0
 r_134: + x_242 >= 0
 r_135: + x_154 + x_153 >= 0
 r_136: + x_153 - ~r_136 = 0
 r_137: + x_154 >= 0
 r_138: + x_157 + x_156 + x_155 >= 0
 r_139: + x_247 >= 0
 r_140: + x_159 + x_158 >= 0
 r_141: + x_158 - ~r_141 = 0
 r_142: + x_159 >= 0
 r_143: + x_162 + x_161 + x_160 >= 0
 r_144: + x_248 >= 0
 r_145: + x_164 + x_163 >= 0
 r_146: + x_163 - ~r_146 = 0
 r_147: + x_164 >= 0
 r_148: + x_167 + x_166 + x_165 >= 0
 r_149: + x_254 >= 0
 r_150: + x_169 + x_168 >= 0
 r_151: + x_168 - ~r_151 = 0
 r_152: + x_169 >= 0
 r_153: + x_172 + x_171 + x_170 >= 0
 r_154: + x_258 >= 0
 r_155: + x_174 + x_173 >= 0
 r_156: + x_173 - ~r_156 = 0
 r_157: + x_174 >= 0
 r_158: + x_177 + x_176 + x_175 >= 0
 r_159: + x_256 >= 0
 r_160: + x_179 + x_178 >= 0
 r_161: + x_178 - ~r_161 = 0
 r_162: + x_179 >= 0
 r_163: + x_182 + x_181 + x_180 >= 0
 r_164: + x_269 >= 0
 r_165: + x_184 + x_183 >= 0
 r_166: + x_183 - ~r_166 = 0
 r_167: + x_184 >= 0
 r_168: + x_187 + x_186 + x_185 >= 0
 r_169: + x_257 >= 0
 r_170: + x_189 + x_188 >= 0
 r_171: + x_188 - ~r_171 = 0
 r_172: + x_189 >= 0
 r_173: + x_192 + x_191 + x_190 >= 0
 r_174: + x_268 >= 0
 r_175: + x_194 + x_193 >= 0
 r_176: + x_193 - ~r_176 = 0
 r_177: + x_194 >= 0
 r_178: + x_197 + x_196 + x_195 >= 0
 r_179: + x_266 >= 0
 r_180: + x_199 + x_198 >= 0
 r_181: + x_198 - ~r_181 = 0
 r_182: + x_199 >= 0
 r_183: + x_202 + x_201 + x_200 >= 0
 r_184: + x_259 >= 0
 r_185: + x_204 + x_203 >= 0
 r_186: + x_203 - ~r_186 = 0
 r_187: + x_204 >= 0
 r_188: + x_207 + x_206 + x_205 >= 0
 r_189: + x_240 >= 0
 r_190: + x_209 + x_208 >= 0
 r_191: + x_208 - ~r_191 = 0
 r_192: + x_209 >= 0
 r_193: + x_212 + x_211 + x_210 >= 0
 r_194: + x_260 >= 0
 r_195: + x_214 + x_213 >= 0
 r_196: + x_213 - ~r_196 = 0
 r_197: + x_214 >= 0
 r_198: + x_217 + x_216 + x_215 >= 0
 r_199: + x_271 >= 0
 r_200: + x_219 + x_218 >= 0
 r_201: + x_218 - ~r_201 = 0
 r_202: + x_219 >= 0
 r_203: + x_222 + x_221 + x_220 >= 0
 r_204: + x_263 >= 0
 r_205: + x_224 + x_223 >= 0
 r_206: + x_223 - ~r_206 = 0
 r_207: + x_224 >= 0
 r_208: + x_227 + x_226 + x_225 >= 0
 r_209: + x_252 >= 0
 r_210: + x_229 + x_228 >= 0
 r_211: + x_228 - ~r_211 = 0
 r_212: + x_229 >= 0
 r_213: + x_230 - ~r_213 = 0
 r_214: + x_100 + x_4 - ~r_214 = 0
 r_215: + x_101 - ~r_215 = 0
 r_216: + x_279 + x_2 - ~r_216 = 0
 r_217: + x_280 - ~r_217 = 0
 r_218: + x_105 + x_25 - ~r_218 = 0
 r_219: + x_106 - ~r_219 = 0
 r_220: + x_110 + x_26 - ~r_220 = 0
 r_221: + x_111 - ~r_221 = 0
 r_222: + x_284 + x_7 - ~r_222 = 0
 r_223: + x_285 - ~r_223 = 0
 r_224: + x_115 + x_8 - ~r_224 = 0
 r_225: + x_116 - ~r_225 = 0
 r_226: + x_120 + x_27 - ~r_226 = 0
 r_227: + x_121 - ~r_227 = 0
 r_228: + x_125 + x_28 - ~r_228 = 0
 r_229: + x_126 - ~r_229 = 0
 r_230: + x_130 + x_29 - ~r_230 = 0
 r_231: + x_131 - ~r_231 = 0
 r_232: + x_135 + x_30 - ~r_232 = 0
 r_233: + x_136 - ~r_233 = 0
 r_234: + x_140 + x_31 - ~r_234 = 0
 r_235: + x_141 - ~r_235 = 0
 r_236: + x_145 + x_9 - ~r_236 = 0
 r_237: + x_146 - ~r_237 = 0
 r_238: + x_150 + x_32 - ~r_238 = 0
 r_239: + x_151 - ~r_239 = 0
 r_240: + x_273 + x_272 + x_271 + x_270 + x_269 + x_268 + x_267 + x_266
 + x_265 + x_264 + x_263 + x_262 + x_261 + x_260 + x_259 + x_258 + x_257
 + x_256 + x_255 + x_254 + x_253 + x_252 + x_251 + x_250 + x_249 + x_248
 + x_247 + x_246 + x_245 + x_244 + x_243 + x_242 + x_241 + x_240 + x_239
 + x_238 + x_237 + x_236 + x_235 + x_234 + x_233 + x_232 + x_231 + x_230
 = 311083200
 r_241: + x_155 + x_33 - ~r_241 = 0
 r_242: + x_156 - ~r_242 = 0
 r_243: + x_160 + x_34 - ~r_243 = 0
 r_244: + x_161 - ~r_244 = 0
 r_245: + x_165 + x_35 - ~r_245 = 0
 r_246: + x_166 - ~r_246 = 0
 r_247: + x_170 + x_36 - ~r_247 = 0
 r_248: + x_171 - ~r_248 = 0
 r_249: + x_47 = 0
 r_250: + x_47 = 0
 r_251: + x_52 = 0
 r_252: + x_52 = 0
 r_253: + x_57 = 0
 r_254: + x_57 = 0
 r_255: + x_62 = 0
 r_256: + x_62 = 0
 r_257: + x_67 = 0
 r_258: + x_67 = 0
 r_259: + x_72 = 0
 r_260: + x_72 = 0
 r_261: + x_77 - ~r_261 = 0
 r_262: + x_77 - ~r_262 = 0
 r_263: + x_82 - ~r_263 = 0
 r_264: + x_82 - ~r_264 = 0
 r_265: + x_87 - ~r_265 = 0
 r_266: + x_87 - ~r_266 = 0
 r_267: + x_92 = 0
 r_268: + x_92 = 0
 r_269: + x_97 = 0
 r_270: + x_97 = 0
 r_271: + x_102 - ~r_271 = 0
 r_272: + x_102 - ~r_272 = 0
 r_273: + x_281 = 0
 r_274: + x_281 = 0
 r_275: + x_107 = 0
 r_276: + x_107 = 0
 r_277: + x_112 = 0
 r_278: + x_112 = 0
 r_279: + x_286 = 0
 r_280: + x_286 = 0
 r_281: + x_117 = 0
 r_282: + x_117 = 0
 r_283: + x_122 = 0
 r_284: + x_122 = 0
 r_285: + x_127 = 0
 r_286: + x_127 = 0
 r_287: + x_132 = 0
 r_288: + x_132 = 0
 r_289: + x_137 = 0
 r_290: + x_137 = 0
 r_291: + x_142 = 0
 r_292: + x_142 = 0
 r_293: + x_147 - ~r_293 = 0
 r_294: + x_147 - ~r_294 = 0
 r_295: + x_152 = 0
 r_296: + x_152 = 0
 r_297: + x_157 = 0
 r_298: + x_157 = 0
 r_299: + x_162 = 0
 r_300: + x_162 = 0
 r_301: + x_167 = 0
 r_302: + x_167 = 0
 r_303: + x_172 = 0
 r_304: + x_172 = 0
 r_305: + x_289 = 0
 r_306: + x_289 = 0
 r_307: + x_175 = 0
 r_308: + x_175 = 0
 r_309: + x_180 = 0
 r_310: + x_180 = 0
 r_311: + x_185 = 0
 r_312: + x_185 = 0
 r_313: + x_274 = 0
 r_314: + x_274 = 0
 r_315: + x_294 = 0
 r_316: + x_294 = 0
 r_317: + x_190 = 0
 r_318: + x_190 = 0
 r_319: + x_195 = 0
 r_320: + x_195 = 0
 r_321: + x_200 = 0
 r_322: + x_200 = 0
 r_323: + x_205 = 0
 r_324: + x_205 = 0
 r_325: + x_210 = 0
 r_326: + x_210 = 0
 r_327: + x_215 = 0
 r_328: + x_215 = 0
 r_329: + x_220 = 0
 r_330: + x_220 = 0
 r_331: + x_225 = 0
 r_332: + x_225 = 0
 r_333: + x_290 + x_10 - ~r_333 = 0
 r_334: + x_291 - ~r_334 = 0
 r_335: + x_176 + x_37 - ~r_335 = 0
 r_336: + x_177 - ~r_336 = 0
 r_337: + x_181 + x_38 - ~r_337 = 0
 r_338: + x_182 - ~r_338 = 0
 r_339: + x_186 + x_39 - ~r_339 = 0
 r_340: + x_187 - ~r_340 = 0
 r_341: + x_275 + x_11 - ~r_341 = 0
 r_342: + x_276 - ~r_342 = 0
 r_343: + x_295 + x_12 - ~r_343 = 0
 r_344: + x_296 - ~r_344 = 0
 r_345: + x_191 + x_13 - ~r_345 = 0
 r_346: + x_192 - ~r_346 = 0
 r_347: + x_196 + x_40 - ~r_347 = 0
 r_348: + x_197 - ~r_348 = 0
 r_349: + x_201 + x_41 - ~r_349 = 0
 r_350: + x_202 - ~r_350 = 0
 r_351: + x_206 + x_3 - ~r_351 = 0
 r_352: + x_207 - ~r_352 = 0
 r_353: + x_211 + x_42 - ~r_353 = 0
 r_354: + x_212 - ~r_354 = 0
 r_355: + x_216 + x_43 - ~r_355 = 0
 r_356: + x_217 - ~r_356 = 0
 r_357: + x_221 + x_44 - ~r_357 = 0
 r_358: + x_222 - ~r_358 = 0
 r_359: + x_226 + x_45 - ~r_359 = 0
 r_360: + x_227 - ~r_360 = 0
 r_361: + x_276 + x_275 + x_274 >= 0
 r_362: + x_237 >= 0
 r_363: + x_278 + x_277 >= 0
 r_364: + x_277 - ~r_364 = 0
 r_365: + x_278 >= 0
 r_366: + x_234 + x_233 >= 0
 r_367: + x_281 + x_280 + x_279 >= 0
 r_368: + x_236 >= 0
 r_369: + x_283 + x_282 >= 0
 r_370: + x_282 - ~r_370 = 0
 r_371: + x_283 >= 0
 r_372: + x_242 + x_241 >= 0
 r_373: + x_248 + x_247 + x_246 >= 0
 r_374: + x_286 + x_285 + x_284 >= 0
 r_375: + x_245 >= 0
 r_376: + x_288 + x_287 >= 0
 r_377: + x_287 - ~r_377 = 0
 r_378: + x_288 >= 0
 r_379: + x_254 + x_253 >= 0
 r_380: + x_291 + x_290 + x_289 >= 0
 r_381: + x_238 >= 0
 r_382: + x_293 + x_292 >= 0
 r_383: + x_292 - ~r_383 = 0
 r_384: + x_293 >= 0
 r_385: + x_240 + x_239 >= 0
 r_386: + x_296 + x_295 + x_294 >= 0
 r_387: + x_243 >= 0
 r_388: + x_298 + x_297 >= 0
 r_389: + x_297 - ~r_389 = 0
 r_390: + x_298 >= 0
 r_391: + x_266 + x_265 >= 0
 r_392: + x_254 + x_253 + x_252 + x_251 + x_250 + x_249 >= 0
 r_393: + x_5 = 0
 r_394: + x_1 = 0
 r_395: + x_14 = 0
 r_396: + x_273 + x_272 + x_271 + x_270 + x_269 + x_268 + x_267 + x_266
 + x_265 + x_264 + x_263 + x_262 + x_261 + x_260 + x_259 + x_258 + x_257
 + x_256 + x_255 + x_254 + x_253 + x_252 + x_251 + x_250 + x_249 + x_248
 + x_247 + x_246 + x_245 + x_244 + x_243 + x_242 + x_241 + x_240 + x_239
 + x_238 + x_237 + x_236 + x_235 + x_234 + x_233 + x_232 + x_231 + x_230
 >= 0
 r_397: + x_273 + x_272 + x_271 + x_270 + x_269 + x_268 + x_267 + x_266
 + x_265 + x_264 + x_263 + x_262 + x_261 + x_260 + x_259 + x_258 + x_257
 + x_256 + x_255 + x_254 + x_253 + x_252 + x_251 + x_250 + x_249 + x_248
 + x_247 + x_246 + x_245 + x_244 + x_243 + x_242 + x_241 >= 0
 r_398: + x_273 + x_272 + x_271 + x_270 + x_269 + x_268 + x_267 + x_266
 + x_265 + x_264 + x_263 + x_262 + x_261 + x_260 + x_259 + x_258 + x_257
 + x_256 + x_255 + x_254 + x_253 + x_252 + x_251 + x_250 + x_249 + x_248
 + x_247 + x_246 + x_245 + x_244 + x_243 >= 0
 r_399: + x_273 + x_272 + x_271 + x_270 + x_269 + x_268 + x_267 + x_266
 + x_265 + x_264 + x_263 + x_262 + x_261 + x_260 + x_259 + x_258 + x_257
 + x_256 + x_255 + x_254 + x_253 + x_252 + x_251 + x_250 + x_249 + x_248
 + x_247 + x_246 + x_245 + x_244 >= 0
 r_400: + x_273 + x_272 + x_271 + x_270 + x_269 + x_268 + x_267 + x_266
 + x_265 + x_264 + x_263 + x_262 + x_261 + x_260 + x_259 + x_258 + x_257
 + x_256 + x_255 + x_254 + x_253 + x_252 + x_251 + x_250 + x_249 + x_248
 + x_247 + x_246 + x_245 >= 0
 r_401: + x_273 + x_272 + x_271 + x_270 + x_269 + x_268 + x_267 + x_266
 + x_265 + x_264 + x_263 + x_262 + x_261 + x_260 + x_259 + x_258 + x_257
 + x_256 + x_255 + x_254 + x_253 + x_252 + x_251 + x_250 + x_249 + x_248
 + x_247 + x_246 >= 0
 r_402: + x_273 + x_272 + x_271 + x_270 + x_269 + x_268 + x_267 + x_266
 + x_265 + x_264 + x_263 + x_262 + x_261 + x_260 + x_259 + x_258 + x_257
 + x_256 + x_255 + x_254 + x_253 + x_252 + x_251 + x_250 + x_249 >= 0
 r_403: + x_273 + x_272 + x_271 + x_270 + x_269 + x_268 + x_267 + x_266
 + x_265 + x_264 + x_263 + x_262 + x_261 + x_260 + x_259 + x_258 + x_257
 + x_256 + x_255 >= 0
 r_404: + x_273 + x_272 + x_271 + x_270 + x_269 + x_268 + x_267 + x_266
 + x_265 + x_264 + x_263 + x_262 + x_261 + x_260 + x_259 + x_258 + x_257
 + x_256 >= 0
 r_405: + x_273 + x_272 + x_271 + x_270 + x_269 + x_268 + x_267 + x_266
 + x_265 + x_264 + x_263 + x_262 + x_261 + x_260 + x_259 + x_258 + x_257
 >= 0
 r_406: + x_273 + x_272 + x_271 + x_270 + x_269 + x_268 + x_267 + x_266
 + x_265 + x_264 + x_263 + x_262 + x_261 + x_260 + x_259 + x_258 >= 0
 r_407: + x_273 + x_272 + x_271 + x_270 + x_269 + x_268 + x_267 + x_266
 + x_265 + x_264 + x_263 + x_262 + x_261 + x_260 + x_259 + x_258 + x_257
 + x_256 + x_255 + x_254 + x_253 + x_252 + x_251 + x_250 + x_249 + x_248
 + x_247 + x_246 + x_245 + x_244 + x_243 + x_242 + x_241 + x_240 + x_239
 + x_238 + x_237 + x_236 + x_235 + x_234 + x_233 + x_232 + x_231 >= 0
 r_408: + x_273 + x_272 + x_271 + x_270 + x_269 + x_268 + x_267 + x_266
 + x_265 + x_264 + x_263 + x_262 + x_261 + x_260 >= 0
 r_409: + x_273 + x_272 + x_271 + x_270 + x_269 + x_268 + x_267 + x_266
 + x_265 + x_264 + x_263 + x_262 + x_261 + x_260 >= 0
 r_410: + x_273 + x_272 + x_271 + x_270 + x_269 + x_268 + x_267 + x_266
 + x_265 + x_264 + x_263 + x_262 + x_261 >= 0
 r_411: + x_273 + x_272 + x_271 + x_270 + x_269 + x_268 + x_267 + x_266
 + x_265 + x_264 + x_263 + x_262 >= 0
 r_412: + x_273 + x_272 + x_271 + x_270 + x_269 + x_268 + x_267 + x_266
 + x_265 + x_264 + x_263 >= 0
 r_413: + x_273 + x_272 + x_271 + x_270 + x_269 + x_268 + x_267 + x_266
 + x_265 + x_264 >= 0
 r_414: + x_273 + x_272 + x_271 + x_270 + x_269 + x_268 + x_267 + x_266
 + x_265 >= 0
 r_415: + x_273 + x_272 + x_271 + x_270 + x_269 + x_268 + x_267 >= 0
 r_416: + x_273 + x_272 + x_271 + x_270 + x_269 + x_268 >= 0
 r_417: + x_273 + x_272 + x_271 + x_270 + x_269 >= 0
 r_418: + x_273 + x_272 + x_271 + x_270 + x_269 + x_268 + x_267 + x_266
 + x_265 + x_264 + x_263 + x_262 + x_261 + x_260 + x_259 + x_258 + x_257
 + x_256 + x_255 + x_254 + x_253 + x_252 + x_251 + x_250 + x_249 + x_248
 + x_247 + x_246 + x_245 + x_244 + x_243 + x_242 + x_241 + x_240 + x_239
 + x_238 + x_237 + x_236 + x_235 + x_234 + x_233 + x_232 >= 0
 r_419: + x_273 + x_272 + x_271 + x_270 >= 0
 r_420: + x_273 + x_272 + x_271 >= 0
 r_421: + x_273 + x_272 >= 0
 r_422: + x_273 + x_272 + x_271 + x_270 + x_269 + x_268 + x_267 + x_266
 + x_265 + x_264 + x_263 + x_262 + x_261 + x_260 + x_259 + x_258 + x_257
 + x_256 + x_255 + x_254 + x_253 + x_252 + x_251 + x_250 + x_249 + x_248
 + x_247 + x_246 + x_245 + x_244 + x_243 + x_242 + x_241 + x_240 + x_239
 + x_238 + x_237 + x_236 + x_235 + x_234 + x_233 >= 0
 r_423: + x_273 + x_272 + x_271 + x_270 + x_269 + x_268 + x_267 + x_266
 + x_265 + x_264 + x_263 + x_262 + x_261 + x_260 + x_259 + x_258 + x_257
 + x_256 + x_255 + x_254 + x_253 + x_252 + x_251 + x_250 + x_249 + x_248
 + x_247 + x_246 + x_245 + x_244 + x_243 + x_242 + x_241 + x_240 + x_239
 + x_238 + x_237 + x_236 + x_235 >= 0
 r_424: + x_273 + x_272 + x_271 + x_270 + x_269 + x_268 + x_267 + x_266
 + x_265 + x_264 + x_263 + x_262 + x_261 + x_260 + x_259 + x_258 + x_257
 + x_256 + x_255 + x_254 + x_253 + x_252 + x_251 + x_250 + x_249 + x_248
 + x_247 + x_246 + x_245 + x_244 + x_243 + x_242 + x_241 + x_240 + x_239
 + x_238 + x_237 + x_236 >= 0
 r_425: + x_273 + x_272 + x_271 + x_270 + x_269 + x_268 + x_267 + x_266
 + x_265 + x_264 + x_263 + x_262 + x_261 + x_260 + x_259 + x_258 + x_257
 + x_256 + x_255 + x_254 + x_253 + x_252 + x_251 + x_250 + x_249 + x_248
 + x_247 + x_246 + x_245 + x_244 + x_243 + x_242 + x_241 + x_240 + x_239
 + x_238 + x_237 >= 0
 r_426: + x_273 + x_272 + x_271 + x_270 + x_269 + x_268 + x_267 + x_266
 + x_265 + x_264 + x_263 + x_262 + x_261 + x_260 + x_259 + x_258 + x_257
 + x_256 + x_255 + x_254 + x_253 + x_252 + x_251 + x_250 + x_249 + x_248
 + x_247 + x_246 + x_245 + x_244 + x_243 + x_242 + x_241 + x_240 + x_239
 + x_238 >= 0
 r_427: + x_273 + x_272 + x_271 + x_270 + x_269 + x_268 + x_267 + x_266
 + x_265 + x_264 + x_263 + x_262 + x_261 + x_260 + x_259 + x_258 + x_257
 + x_256 + x_255 + x_254 + x_253 + x_252 + x_251 + x_250 + x_249 + x_248
 + x_247 + x_246 + x_245 + x_244 + x_243 + x_242 + x_241 + x_240 + x_239
 >= 0
 r_428: + x_15 - ~r_428 = 0
 r_429: + x_16 - ~r_429 = 0
 r_430: + x_6 - ~r_430 = 0
 r_431: + x_17 - ~r_431 = 0
 r_432: + x_18 - ~r_432 = 0
 r_433: + x_19 - ~r_433 = 0
 r_434: + x_20 - ~r_434 = 0
 r_435: + x_21 - ~r_435 = 0
 r_436: + x_22 - ~r_436 = 0
 r_437: + x_23 - ~r_437 = 0
 r_438: + x_24 - ~r_438 = 0
 r_439: + x_2 - ~r_439 = 0
 r_440: + x_25 - ~r_440 = 0
 r_441: + x_26 - ~r_441 = 0
 r_442: + x_7 - ~r_442 = 0
 r_443: + x_8 - ~r_443 = 0
 r_444: + x_27 - ~r_444 = 0
 r_445: + x_28 - ~r_445 = 0
 r_446: + x_29 - ~r_446 = 0
 r_447: + x_30 - ~r_447 = 0
 r_448: + x_31 - ~r_448 = 0
 r_449: + x_9 - ~r_449 = 0
 r_450: + x_32 - ~r_450 = 0
 r_451: + x_33 - ~r_451 = 0
 r_452: + x_34 - ~r_452 = 0
 r_453: + x_35 - ~r_453 = 0
 r_454: + x_36 - ~r_454 = 0
 r_455: + x_10 - ~r_455 = 0
 r_456: + x_37 - ~r_456 = 0
 r_457: + x_38 - ~r_457 = 0
 r_458: + x_39 - ~r_458 = 0
 r_459: + x_11 - ~r_459 = 0
 r_460: + x_12 - ~r_460 = 0
 r_461: + x_13 - ~r_461 = 0
 r_462: + x_40 - ~r_462 = 0
 r_463: + x_41 - ~r_463 = 0
 r_464: + x_3 - ~r_464 = 0
 r_465: + x_42 - ~r_465 = 0
 r_466: + x_43 - ~r_466 = 0
 r_467: + x_44 - ~r_467 = 0
 r_468: + x_45 - ~r_468 = 0
 r_469: + x_273 >= 0
 r_470: + x_49 + x_48 - x_255 = 0
 r_471: + x_47 + x_46 - x_49 - x_48 = 0
 r_472: + x_54 + x_53 - x_270 = 0
 r_473: + x_52 + x_51 + x_50 - x_54 - x_53 = 0
 r_474: + x_59 + x_58 - x_239 = 0
 r_475: + x_57 + x_56 + x_55 - x_59 - x_58 = 0
 r_476: + x_64 + x_63 - x_244 = 0
 r_477: + x_62 + x_61 + x_60 - x_64 - x_63 = 0
 r_478: + x_69 + x_68 - x_265 = 0
 r_479: + x_67 + x_66 + x_65 - x_69 - x_68 = 0
 r_480: + x_74 + x_73 - x_267 = 0
 r_481: + x_72 + x_71 + x_70 - x_74 - x_73 = 0
 r_482: + x_79 + x_78 - x_233 = 0
 r_483: + x_77 + x_76 + x_75 - x_79 - x_78 = 0
 r_484: + x_84 + x_83 - x_234 = 0
 r_485: + x_82 + x_81 + x_80 - x_84 - x_83 = 0
 r_486: + x_89 + x_88 - x_231 = 0
 r_487: + x_87 + x_86 + x_85 - x_89 - x_88 = 0
 r_488: + x_94 + x_93 - x_264 = 0
 r_489: + x_92 + x_91 + x_90 - x_94 - x_93 = 0
 r_490: + x_99 + x_98 - x_249 = 0
 r_491: + x_97 + x_96 + x_95 - x_99 - x_98 = 0
 r_492: + x_104 + x_103 - x_232 = 0
 r_493: + x_102 + x_101 + x_100 - x_104 - x_103 = 0
 r_494: + x_109 + x_108 - x_272 = 0
 r_495: + x_107 + x_106 + x_105 - x_109 - x_108 = 0
 r_496: + x_114 + x_113 - x_250 = 0
 r_497: + x_112 + x_111 + x_110 - x_114 - x_113 = 0
 r_498: + x_119 + x_118 - x_241 = 0
 r_499: + x_117 + x_116 + x_115 - x_119 - x_118 = 0
 r_500: + x_124 + x_123 - x_253 = 0
 r_501: + x_122 + x_121 + x_120 - x_124 - x_123 = 0
 r_502: + x_129 + x_128 - x_251 = 0
 r_503: + x_127 + x_126 + x_125 - x_129 - x_128 = 0
 r_504: + x_134 + x_133 - x_246 = 0
 r_505: + x_132 + x_131 + x_130 - x_134 - x_133 = 0
 r_506: + x_139 + x_138 - x_262 = 0
 r_507: + x_137 + x_136 + x_135 - x_139 - x_138 = 0
 r_508: + x_144 + x_143 - x_261 = 0
 r_509: + x_142 + x_141 + x_140 - x_144 - x_143 = 0
 r_510: + x_149 + x_148 - x_235 = 0
 r_511: + x_147 + x_146 + x_145 - x_149 - x_148 = 0
 r_512: + x_154 + x_153 - x_242 = 0
 r_513: + x_152 + x_151 + x_150 - x_154 - x_153 = 0
 r_514: + x_159 + x_158 - x_247 = 0
 r_515: + x_157 + x_156 + x_155 - x_159 - x_158 = 0
 r_516: + x_164 + x_163 - x_248 = 0
 r_517: + x_162 + x_161 + x_160 - x_164 - x_163 = 0
 r_518: + x_169 + x_168 - x_254 = 0
 r_519: + x_167 + x_166 + x_165 - x_169 - x_168 = 0
 r_520: + x_174 + x_173 - x_258 = 0
 r_521: + x_172 + x_171 + x_170 - x_174 - x_173 = 0
 r_522: + x_179 + x_178 - x_256 = 0
 r_523: + x_177 + x_176 + x_175 - x_179 - x_178 = 0
 r_524: + x_184 + x_183 - x_269 = 0
 r_525: + x_182 + x_181 + x_180 - x_184 - x_183 = 0
 r_526: + x_189 + x_188 - x_257 = 0
 r_527: + x_187 + x_186 + x_185 - x_189 - x_188 = 0
 r_528: + x_194 + x_193 - x_268 = 0
 r_529: + x_192 + x_191 + x_190 - x_194 - x_193 = 0
 r_530: + x_199 + x_198 - x_266 = 0
 r_531: + x_197 + x_196 + x_195 - x_199 - x_198 = 0
 r_532: + x_204 + x_203 - x_259 = 0
 r_533: + x_202 + x_201 + x_200 - x_204 - x_203 = 0
 r_534: + x_209 + x_208 - x_240 = 0
 r_535: + x_207 + x_206 + x_205 - x_209 - x_208 = 0
 r_536: + x_214 + x_213 - x_260 = 0
 r_537: + x_212 + x_211 + x_210 - x_214 - x_213 = 0
 r_538: + x_219 + x_218 - x_271 = 0
 r_539: + x_217 + x_216 + x_215 - x_219 - x_218 = 0
 r_540: + x_224 + x_223 - x_263 = 0
 r_541: + x_222 + x_221 + x_220 - x_224 - x_223 = 0
 r_542: + x_229 + x_228 - x_252 = 0
 r_543: + x_227 + x_226 + x_225 - x_229 - x_228 = 0
 r_544: + x_278 + x_277 - x_237 = 0
 r_545: + x_276 + x_275 + x_274 - x_278 - x_277 = 0
 r_546: + x_283 + x_282 - x_236 = 0
 r_547: + x_281 + x_280 + x_279 - x_283 - x_282 = 0
 r_548: + x_288 + x_287 - x_245 = 0
 r_549: + x_286 + x_285 + x_284 - x_288 - x_287 = 0
 r_550: + x_293 + x_292 - x_238 = 0
 r_551: + x_291 + x_290 + x_289 - x_293 - x_292 = 0
 r_552: + x_298 + x_297 - x_243 = 0
 r_553: + x_296 + x_295 + x_294 - x_298 - x_297 = 0
 r_554: - x_3 - x_2 - x_1 + x_281 + x_205 - ~r_554 = -8.05215291637728
 r_555: - x_13 - x_12 - x_11 - x_10 - x_9 - x_8 - x_7 - x_6 - x_5 - x_4
 + x_294 + x_289 + x_286 + x_274 + x_190 + x_147 + x_117 + x_102 + x_57
 - ~r_555 = -37.5
 r_556: - x_45 - x_44 - x_43 - x_42 - x_41 - x_40 - x_39 - x_38 - x_37
 - x_36 - x_35 - x_34 - x_33 - x_32 - x_31 - x_30 - x_29 - x_28 - x_27
 - x_26 - x_25 - x_24 - x_23 - x_22 - x_21 - x_20 - x_19 - x_18 - x_17
 - x_16 - x_15 - x_14 + x_225 + x_220 + x_215 + x_210 + x_200 + x_195
 + x_185 + x_180 + x_175 + x_172 + x_167 + x_162 + x_157 + x_152 + x_142
 + x_137 + x_132 + x_127 + x_122 + x_112 + x_107 + x_97 + x_92 + x_87
 + x_82 + x_77 + x_72 + x_67 + x_62 + x_52 + x_47 - ~r_556 = -37.5

Bounds
 0 <= ~r_7 <= 4444045.71428571
 0 <= ~r_8 <= 4444045.71428571
 0 <= ~r_9 <= 4444045.71428571
 0 <= ~r_10 <= 4444045.71428571
 0 <= ~r_11 <= 4444045.71428571
 0 <= ~r_12 <= 4444045.71428571
 0 <= ~r_13 <= 4444045.71428571
 0 <= ~r_14 <= 4444045.71428571
 0 <= ~r_15 <= 4444045.71428571
 0 <= ~r_16 <= 4444045.71428571
 0 <= ~r_17 <= 4444045.71428571
 0 <= ~r_18 <= 1
 0 <= ~r_19 <= 1
 0 <= ~r_20 <= 1
 0 <= ~r_21 <= 1
 0 <= ~r_22 <= 1
 0 <= ~r_23 <= 1
 0 <= ~r_24 <= 4444045.71428571
 0 <= ~r_25 <= 4444045.71428571
 0 <= ~r_26 <= 4444045.71428571
 0 <= ~r_27 <= 4444045.71428571
 0 <= ~r_31 <= 622166.4
 0 <= ~r_36 <= 622166.4
 0 <= ~r_41 <= 622166.4
 0 <= ~r_46 <= 622166.4
 0 <= ~r_51 <= 622166.4
 0 <= ~r_56 <= 622166.4
 0 <= ~r_61 <= 622166.4
 0 <= ~r_66 <= 622166.4
 0 <= ~r_71 <= 622166.4
 0 <= ~r_76 <= 622166.4
 0 <= ~r_81 <= 622166.4
 0 <= ~r_86 <= 622166.4
 0 <= ~r_91 <= 622166.4
 0 <= ~r_96 <= 622166.4
 0 <= ~r_101 <= 622166.4
 0 <= ~r_106 <= 622166.4
 0 <= ~r_111 <= 622166.4
 0 <= ~r_116 <= 622166.4
 0 <= ~r_121 <= 622166.4
 0 <= ~r_126 <= 622166.4
 0 <= ~r_131 <= 622166.4
 0 <= ~r_136 <= 622166.4
 0 <= ~r_141 <= 622166.4
 0 <= ~r_146 <= 622166.4
 0 <= ~r_151 <= 622166.4
 0 <= ~r_156 <= 622166.4
 0 <= ~r_161 <= 622166.4
 0 <= ~r_166 <= 622166.4
 0 <= ~r_171 <= 622166.4
 0 <= ~r_176 <= 622166.4
 0 <= ~r_181 <= 622166.4
 0 <= ~r_186 <= 622166.4
 0 <= ~r_191 <= 622166.4
 0 <= ~r_196 <= 622166.4
 0 <= ~r_201 <= 622166.4
 0 <= ~r_206 <= 622166.4
 0 <= ~r_211 <= 622166.4
 0 <= ~r_213 <= 0.1
 0 <= ~r_214 <= 1
 0 <= ~r_215 <= 1
 0 <= ~r_216 <= 4444045.71428571
 0 <= ~r_217 <= 1
 0 <= ~r_218 <= 4444045.71428571
 0 <= ~r_219 <= 4444045.71428571
 0 <= ~r_220 <= 4444045.71428571
 0 <= ~r_221 <= 4444045.71428571
 0 <= ~r_222 <= 4444045.71428571
 0 <= ~r_223 <= 4444045.71428571
 0 <= ~r_224 <= 4444045.71428571
 0 <= ~r_225 <= 4444045.71428571
 0 <= ~r_226 <= 4444045.71428571
 0 <= ~r_227 <= 4444045.71428571
 0 <= ~r_228 <= 4444045.71428571
 0 <= ~r_229 <= 4444045.71428571
 0 <= ~r_230 <= 4444045.71428571
 0 <= ~r_231 <= 4444045.71428571
 0 <= ~r_232 <= 4444045.71428571
 0 <= ~r_233 <= 4444045.71428571
 0 <= ~r_234 <= 4444045.71428571
 0 <= ~r_235 <= 4444045.71428571
 0 <= ~r_236 <= 1
 0 <= ~r_237 <= 1
 0 <= ~r_238 <= 4444045.71428571
 0 <= ~r_239 <= 4444045.71428571
 0 <= ~r_241 <= 4444045.71428571
 0 <= ~r_242 <= 4444045.71428571
 0 <= ~r_243 <= 4444045.71428571
 0 <= ~r_244 <= 4444045.71428571
 0 <= ~r_245 <= 4444045.71428571
 0 <= ~r_246 <= 4444045.71428571
 0 <= ~r_247 <= 4444045.71428571
 0 <= ~r_248 <= 4444045.71428571
 0 <= ~r_261 <= 622164.4
 0 <= ~r_262 <= 622164.4
 0 <= ~r_263 <= 622164.4
 0 <= ~r_264 <= 622164.4
 0 <= ~r_265 <= 622164.4
 0 <= ~r_266 <= 622164.4
 0 <= ~r_271 <= 622164.4
 0 <= ~r_272 <= 622164.4
 0 <= ~r_293 <= 622164.4
 0 <= ~r_294 <= 622164.4
 0 <= ~r_333 <= 4444045.71428571
 0 <= ~r_334 <= 4444045.71428571
 0 <= ~r_335 <= 4444045.71428571
 0 <= ~r_336 <= 4444045.71428571
 0 <= ~r_337 <= 4444045.71428571
 0 <= ~r_338 <= 4444045.71428571
 0 <= ~r_339 <= 4444045.71428571
 0 <= ~r_340 <= 4444045.71428571
 0 <= ~r_341 <= 4444045.71428571
 0 <= ~r_342 <= 4444045.71428571
 0 <= ~r_343 <= 4444045.71428571
 0 <= ~r_344 <= 4444045.71428571
 0 <= ~r_345 <= 4444045.71428571
 0 <= ~r_346 <= 4444045.71428571
 0 <= ~r_347 <= 4444045.71428571
 0 <= ~r_348 <= 4444045.71428571
 0 <= ~r_349 <= 4444045.71428571
 0 <= ~r_350 <= 4444045.71428571
 0 <= ~r_351 <= 4444045.71428571
 0 <= ~r_352 <= 4444045.71428571
 0 <= ~r_353 <= 4444045.71428571
 0 <= ~r_354 <= 4444045.71428571
 0 <= ~r_355 <= 4444045.71428571
 0 <= ~r_356 <= 4444045.71428571
 0 <= ~r_357 <= 4444045.71428571
 0 <= ~r_358 <= 4444045.71428571
 0 <= ~r_359 <= 4444045.71428571
 0 <= ~r_360 <= 4444045.71428571
 0 <= ~r_364 <= 622166.4
 0 <= ~r_370 <= 622166.4
 0 <= ~r_377 <= 622166.4
 0 <= ~r_383 <= 622166.4
 0 <= ~r_389 <= 622166.4
 0 <= ~r_428 <= 44440.4571428571
 0 <= ~r_429 <= 44440.4571428571
 0 <= ~r_430 <= 44440.4571428571
 0 <= ~r_431 <= 44440.4571428571
 0 <= ~r_432 <= 44440.4571428571
 0 <= ~r_433 <= 44440.4571428571
 0 <= ~r_434 <= 44440.4571428571
 0 <= ~r_435 <= 44440.4571428571
 0 <= ~r_436 <= 1
 0 <= ~r_437 <= 44440.4571428571
 0 <= ~r_438 <= 44440.4571428571
 0 <= ~r_439 <= 44440.4571428571
 0 <= ~r_440 <= 44440.4571428571
 0 <= ~r_441 <= 44440.4571428571
 0 <= ~r_442 <= 44440.4571428571
 0 <= ~r_443 <= 44440.4571428571
 0 <= ~r_444 <= 44440.4571428571
 0 <= ~r_445 <= 44440.4571428571
 0 <= ~r_446 <= 44440.4571428571
 0 <= ~r_447 <= 44440.4571428571
 0 <= ~r_448 <= 44440.4571428571
 0 <= ~r_449 <= 44440.4571428571
 0 <= ~r_450 <= 44440.4571428571
 0 <= ~r_451 <= 44440.4571428571
 0 <= ~r_452 <= 44440.4571428571
 0 <= ~r_453 <= 44440.4571428571
 0 <= ~r_454 <= 44440.4571428571
 0 <= ~r_455 <= 44440.4571428571
 0 <= ~r_456 <= 44440.4571428571
 0 <= ~r_457 <= 44440.4571428571
 0 <= ~r_458 <= 44440.4571428571
 0 <= ~r_459 <= 44440.4571428571
 0 <= ~r_460 <= 44440.4571428571
 0 <= ~r_461 <= 44440.4571428571
 0 <= ~r_462 <= 44440.4571428571
 0 <= ~r_463 <= 44440.4571428571
 0 <= ~r_464 <= 44440.4571428571
 0 <= ~r_465 <= 44440.4571428571
 0 <= ~r_466 <= 44440.4571428571
 0 <= ~r_467 <= 44440.4571428571
 0 <= ~r_468 <= 44440.4571428571
 0 <= ~r_554 <= 37.5
 0 <= ~r_555 <= 37.5
 0 <= ~r_556 <= 37.5

End
